NAME: random-30-7346
TYPE: TSP
COMMENT: size=30 seed=7346
DIMENSION: 62
EDGE_WEIGHT_TYPE: EUC_2D
NODE_COORD_SECTION
+0 222 152
-0 222 152
+1 69 736
-1 9 846
+2 828 12
-2 641 785
+3 944 841
-3 878 561
+4 432 2
-4 688 75
+5 136 359
-5 392 724
+6 655 928
-6 529 647
+7 751 860
-7 73 243
+8 383 226
-8 931 101
+9 125 822
-9 174 165
+10 924 113
-10 702 758
+11 268 919
-11 455 633
+12 183 887
-12 736 615
+13 306 331
-13 695 259
+14 173 498
-14 67 170
+15 497 654
-15 530 383
+16 337 822
-16 157 266
+17 474 791
-17 442 239
+18 65 834
-18 813 727
+19 734 7
-19 732 395
+20 383 284
-20 582 467
+21 316 742
-21 354 568
+22 772 139
-22 737 808
+23 764 982
-23 918 378
+24 267 495
-24 782 827
+25 637 623
-25 843 565
+26 939 115
-26 824 788
+27 602 117
-27 68 14
+28 539 229
-28 980 413
+29 201 440
-29 178 726
+30 764 723
-30 290 947
PRECEDENCE_SECTION
+0 -0
+1 -1
+2 -2
+3 -3
+4 -4
+5 -5
+6 -6
+7 -7
+8 -8
+9 -9
+10 -10
+11 -11
+12 -12
+13 -13
+14 -14
+15 -15
+16 -16
+17 -17
+18 -18
+19 -19
+20 -20
+21 -21
+22 -22
+23 -23
+24 -24
+25 -25
+26 -26
+27 -27
+28 -28
+29 -29
+30 -30
EOF
